% demand
num_movements = 24;
loading_factor = [1100, 1950, 800, 1000, 1000, 850, 1450, 1500, 1450, 1100, 1400, 1850, 1050, 1650, 1050, 1800, 1300, 1550, 1250, 1500, 1550, 2000, 950, 1400];
pickup_time = [0, 1, 1, 2, 2, 4, 4, 4, 4, 4, 7, 7, 8, 8, 8, 10, 10, 10, 10, 11, 11, 13, 13, 13];
delivery_time = [1, 2, 2, 4, 3, 7, 6, 5, 6, 7, 8, 8, 10, 10, 9, 13, 11, 11, 11, 12, 13, 14, 14, 14];

% transporter definition
total_capacity = 7000;
num_decks = 3;
capacity = [3000, 1000, 3000];

% ways out of decks
num_ways_out = 1;
paths_out = array3d(decks, ways_out, decks, [
% ways out of deck d1
2, 3, 0, 

% ways out of deck d2
3, 0, 0, 

% ways out of deck d3
0, 0, 0,	

]);

